Route #1: 23 77 152 139 88 31 132 195 15 29 9 37 140 147 160 155 59 1 51 72 39 
Route #2: 34 4 100 135 170 83 14 176 98 121 189 20 30 109 12 110 182 54 87 113 25 153 169 53 
Route #3: 41 116 199 56 47 65 118 129 103 43 19 120 172 81 49 175 
Route #4: 75 184 191 200 145 102 196 186 69 122 107 138 7 156 22 55 96 
Route #5: 99 78 150 90 141 11 123 130 198 93 10 105 46 85 180 73 163 
Route #6: 115 61 125 143 119 71 48 197 167 44 146 178 101 185 42 92 
Route #7: 131 62 179 137 117 162 94 28 149 108 76 188 97 52 
Route #8: 144 74 192 36 33 35 177 134 63 165 3 158 190 106 104 2 82 111 
Route #9: 151 45 124 50 84 157 166 58 173 5 57 86 183 
Route #10: 164 171 181 8 26 161 64 91 142 66 126 79 133 17 16 89 174 154 70 148 
Route #11: 168 38 95 128 194 114 21 6 40 32 68 13 159 193 27 187 136 24 127 112 60 67 18 80 
Cost 3008.2
